NAME PortOpt_n10_m4_inst_2
ROWS
 N  OBJ
 E  budget  
 G  return  
 L  uncertain_risk
 L  fixed_risk
COLUMNS
    asset[0]  budget    1
    asset[0]  return    1.6806694634619785e+000
    asset[1]  budget    1
    asset[1]  return    1.5022134054492149e+000
    asset[2]  budget    1
    asset[2]  return    1.5632811700015246e+000
    asset[3]  budget    1
    asset[3]  return    2.6950010771659656e+000
    asset[4]  budget    1
    asset[4]  return    1.3787413606734795e+000
    asset[5]  budget    1
    asset[5]  return    3.4758640485229946e+000
    asset[6]  budget    1
    asset[6]  return    3.6907687162322236e+000
    asset[7]  budget    1
    asset[7]  return    2.2140011205059387e+000
    asset[8]  budget    1
    asset[8]  return    1.5810576511376651e+000
    asset[9]  budget    1
    asset[9]  return    3.4118504340656690e+000
    return_var  OBJ       -1
    return_var  return    -1
    uncertain_risk_var  OBJ       1
    uncertain_risk_var  uncertain_risk  -1
    fixed_risk_var  OBJ       1
    fixed_risk_var  fixed_risk  -1
RHS
    RHS1      budget    1
BOUNDS
QCMATRIX   uncertain_risk
    asset[0]  asset[0]  1.8345951609859280e-002
    asset[0]  asset[1]  -2.5426163033776166e-003
    asset[1]  asset[0]  -2.5426163033776166e-003
    asset[0]  asset[2]  1.4673521229935892e-002
    asset[2]  asset[0]  1.4673521229935892e-002
    asset[0]  asset[3]  -8.7651859788628894e-004
    asset[3]  asset[0]  -8.7651859788628894e-004
    asset[0]  asset[4]  1.1600695048523946e-002
    asset[4]  asset[0]  1.1600695048523946e-002
    asset[0]  asset[5]  1.2072359683124579e-002
    asset[5]  asset[0]  1.2072359683124579e-002
    asset[0]  asset[6]  7.6054650834891883e-003
    asset[6]  asset[0]  7.6054650834891883e-003
    asset[0]  asset[7]  1.8795267247193381e-002
    asset[7]  asset[0]  1.8795267247193381e-002
    asset[0]  asset[8]  8.0806126247282906e-004
    asset[8]  asset[0]  8.0806126247282906e-004
    asset[0]  asset[9]  -1.9542806969437738e-002
    asset[9]  asset[0]  -1.9542806969437738e-002
    asset[1]  asset[1]  4.5321417487494922e-002
    asset[1]  asset[2]  -2.9353073028915095e-003
    asset[2]  asset[1]  -2.9353073028915095e-003
    asset[1]  asset[3]  1.8342152262418643e-002
    asset[3]  asset[1]  1.8342152262418643e-002
    asset[1]  asset[4]  5.1982859078872085e-003
    asset[4]  asset[1]  5.1982859078872085e-003
    asset[1]  asset[5]  7.3385653568650167e-003
    asset[5]  asset[1]  7.3385653568650167e-003
    asset[1]  asset[6]  -7.2532992618199333e-004
    asset[6]  asset[1]  -7.2532992618199333e-004
    asset[1]  asset[7]  -1.6342033978037837e-002
    asset[7]  asset[1]  -1.6342033978037837e-002
    asset[1]  asset[8]  1.4210200227820942e-002
    asset[8]  asset[1]  1.4210200227820942e-002
    asset[1]  asset[9]  6.6809895354651525e-002
    asset[9]  asset[1]  6.6809895354651525e-002
    asset[2]  asset[2]  1.1758450859010254e-002
    asset[2]  asset[3]  -8.3145334690225021e-004
    asset[3]  asset[2]  -8.3145334690225021e-004
    asset[2]  asset[4]  9.1142848234269849e-003
    asset[4]  asset[2]  9.1142848234269849e-003
    asset[2]  asset[5]  9.1055923555063804e-003
    asset[5]  asset[2]  9.1055923555063804e-003
    asset[2]  asset[6]  5.9377809540212875e-003
    asset[6]  asset[2]  5.9377809540212875e-003
    asset[2]  asset[7]  1.5269759660149887e-002
    asset[7]  asset[2]  1.5269759660149887e-002
    asset[2]  asset[8]  1.9036744305030143e-004
    asset[8]  asset[2]  1.9036744305030143e-004
    asset[2]  asset[9]  -1.6998760086051778e-002
    asset[9]  asset[2]  -1.6998760086051778e-002
    asset[3]  asset[3]  2.5241463807611275e-002
    asset[3]  asset[4]  4.9024503716036429e-003
    asset[4]  asset[3]  4.9024503716036429e-003
    asset[3]  asset[5]  -2.3537016891984662e-003
    asset[5]  asset[3]  -2.3537016891984662e-003
    asset[3]  asset[6]  -6.4382711840484420e-003
    asset[6]  asset[3]  -6.4382711840484420e-003
    asset[3]  asset[7]  -8.2388927232372074e-003
    asset[7]  asset[3]  -8.2388927232372074e-003
    asset[3]  asset[8]  -7.3176881299412151e-003
    asset[8]  asset[3]  -7.3176881299412151e-003
    asset[3]  asset[9]  2.2448613558163702e-002
    asset[9]  asset[3]  2.2448613558163702e-002
    asset[4]  asset[4]  1.2602791179542905e-002
    asset[4]  asset[5]  2.6178418089176467e-002
    asset[5]  asset[4]  2.6178418089176467e-002
    asset[4]  asset[6]  7.3507495386291987e-003
    asset[6]  asset[4]  7.3507495386291987e-003
    asset[4]  asset[7]  1.0453669106280353e-002
    asset[7]  asset[4]  1.0453669106280353e-002
    asset[4]  asset[8]  4.7069511008441482e-004
    asset[8]  asset[4]  4.7069511008441482e-004
    asset[4]  asset[9]  -1.8866864189089829e-003
    asset[9]  asset[4]  -1.8866864189089829e-003
    asset[5]  asset[5]  9.6064324500890974e-002
    asset[5]  asset[6]  2.3102432749508982e-002
    asset[6]  asset[5]  2.3102432749508982e-002
    asset[5]  asset[7]  1.4467358424896054e-002
    asset[7]  asset[5]  1.4467358424896054e-002
    asset[5]  asset[8]  6.3240975598771194e-003
    asset[8]  asset[5]  6.3240975598771194e-003
    asset[5]  asset[9]  8.1363069946862286e-003
    asset[9]  asset[5]  8.1363069946862286e-003
    asset[6]  asset[6]  8.3956110328937961e-003
    asset[6]  asset[7]  9.1317188381229257e-003
    asset[7]  asset[6]  9.1317188381229257e-003
    asset[6]  asset[8]  4.7952666263308911e-003
    asset[8]  asset[6]  4.7952666263308911e-003
    asset[6]  asset[9]  -4.7848047109099959e-003
    asset[9]  asset[6]  -4.7848047109099959e-003
    asset[7]  asset[7]  2.3848386609985346e-002
    asset[7]  asset[8]  -2.2982572091687853e-003
    asset[8]  asset[7]  -2.2982572091687853e-003
    asset[7]  asset[9]  -3.8813157290278982e-002
    asset[9]  asset[7]  -3.8813157290278982e-002
    asset[8]  asset[8]  1.4216125539756343e-002
    asset[8]  asset[9]  2.2742782005228689e-002
    asset[9]  asset[8]  2.2742782005228689e-002
    asset[9]  asset[9]  1.1385183577415442e-001
QCMATRIX   fixed_risk
    asset[0]  asset[0]  1.8095128820742755e-003
    asset[1]  asset[1]  4.1418227636379713e-003
    asset[2]  asset[2]  1.2250017328926546e-003
    asset[3]  asset[3]  2.6197043466614765e-003
    asset[4]  asset[4]  1.2069283604746810e-003
    asset[5]  asset[5]  9.2110120031261549e-003
    asset[6]  asset[6]  7.4703474015115059e-004
    asset[7]  asset[7]  2.3175606607639186e-003
    asset[8]  asset[8]  1.3527144511033061e-003
    asset[9]  asset[9]  1.3802727650330457e-002
ENDATA
